WARNING: for repeatability, setting FPU to use double precision
============================[ Problem Statistics ]=============================
|                                                                             |
PDLOG propagated to -6543
PDLOG propagated to -417
PDLOG propagated to -414
PDLOG propagated to -412
PDLOG propagated to -422
PDLOG propagated to -1248
PDLOG propagated to -1238
PDLOG propagated to -1245
PDLOG propagated to -517
PDLOG propagated to -449
PDLOG propagated to -431
PDLOG propagated to -551
PDLOG propagated to -464
PDLOG propagated to -553
PDLOG propagated to -462
PDLOG propagated to -547
PDLOG propagated to -529
PDLOG propagated to -527
PDLOG propagated to -523
PDLOG propagated to -469
PDLOG propagated to -467
PDLOG propagated to -459
PDLOG propagated to -563
PDLOG propagated to -561
PDLOG propagated to -557
PDLOG propagated to -538
PDLOG propagated to -536
PDLOG propagated to -532
PDLOG propagated to -508
PDLOG propagated to -505
PDLOG propagated to -502
PDLOG propagated to -496
PDLOG propagated to -494
PDLOG propagated to -490
PDLOG propagated to -487
PDLOG propagated to -485
PDLOG propagated to -481
PDLOG propagated to -478
PDLOG propagated to -476
PDLOG propagated to -472
PDLOG propagated to -514
PDLOG propagated to -455
PDLOG propagated to -446
PDLOG propagated to -453
PDLOG propagated to -1289
PDLOG propagated to -1283
PDLOG propagated to -1276
PDLOG propagated to -1268
PDLOG propagated to -1262
PDLOG propagated to -1254
PDLOG propagated to -1241
PDLOG propagated to -1235
PDLOG propagated to -443
PDLOG propagated to -440
PDLOG propagated to -438
PDLOG propagated to -434
PDLOG propagated to -428
PDLOG propagated to -424
PDLOG propagated to -1304
PDLOG propagated to -1370
PDLOG propagated to -1368
PDLOG propagated to -1369
PDLOG propagated to 1371
PDLOG propagated to -1361
PDLOG propagated to -1321
PDLOG propagated to -1322
PDLOG propagated to -1323
PDLOG propagated to -1320
PDLOG propagated to -1319
PDLOG propagated to 1318
PDLOG propagated to -1308
PDLOG propagated to 1358
PDLOG propagated to -1359
PDLOG propagated to -1360
PDLOG propagated to 1362
PDLOG propagated to -1363
PDLOG propagated to -1364
PDLOG propagated to -1309
PDLOG propagated to -1356
PDLOG propagated to 1353
PDLOG propagated to -1354
PDLOG propagated to -1355
PDLOG propagated to 1357
PDLOG propagated to -1310
PDLOG propagated to -1350
PDLOG propagated to 1349
PDLOG propagated to -1351
PDLOG propagated to -1352
PDLOG propagated to -1347
PDLOG propagated to 1344
PDLOG propagated to -1345
PDLOG propagated to -1346
PDLOG propagated to 1348
PDLOG propagated to -1340
PDLOG propagated to 1337
PDLOG propagated to -1338
PDLOG propagated to -1339
PDLOG propagated to 1341
PDLOG propagated to -1311
PDLOG propagated to 1335
PDLOG propagated to -1336
PDLOG propagated to 1342
PDLOG propagated to -1312
PDLOG propagated to 1332
PDLOG propagated to -1333
PDLOG propagated to 1334
PDLOG propagated to 1343
PDLOG propagated to 1365
PDLOG propagated to -1366
PDLOG propagated to -1313
PDLOG propagated to 1329
PDLOG propagated to -1330
PDLOG propagated to 1331
PDLOG propagated to -1314
PDLOG propagated to -1315
PDLOG propagated to -1325
PDLOG propagated to -1324
PDLOG propagated to 1326
PDLOG propagated to 1327
PDLOG propagated to 1316
PDLOG propagated to -1317
PDLOG propagated to 1328
PDLOG propagated to 1367
PDLOG propagated to -1379
PDLOG propagated to -1377
PDLOG propagated to -1376
PDLOG propagated to 1375
PDLOG propagated to 1374
PDLOG propagated to 1378
PDLOG propagated to 1373
PDLOG propagated to 1380
PDLOG propagated to -1381
PDLOG propagated to -1372
PDLOG propagated to 1382
PDLOG propagated to -1385
PDLOG propagated to -1384
PDLOG propagated to 1386
PDLOG propagated to -1388
PDLOG propagated to -1387
PDLOG propagated to 1389
PDLOG propagated to -1391
PDLOG propagated to -1390
PDLOG propagated to 1392
PDLOG propagated to -1394
PDLOG propagated to -1393
PDLOG propagated to 1395
PDLOG propagated to -1397
PDLOG propagated to -1396
PDLOG propagated to 1398
PDLOG propagated to -1400
PDLOG propagated to -1399
PDLOG propagated to 1401
PDLOG propagated to -1403
PDLOG propagated to -1402
PDLOG propagated to 1404
PDLOG propagated to -1405
PDLOG propagated to -1409
PDLOG propagated to -1408
PDLOG propagated to 1410
PDLOG propagated to -1412
PDLOG propagated to -1411
PDLOG propagated to 1413
PDLOG propagated to -1417
PDLOG propagated to 1418
PDLOG propagated to -1419
PDLOG propagated to -1415
PDLOG propagated to -1416
PDLOG propagated to -1414
PDLOG propagated to 1420
PDLOG propagated to -1427
PDLOG propagated to -1433
PDLOG propagated to 1434
PDLOG propagated to 1435
PDLOG propagated to -1436
PDLOG propagated to -1432
PDLOG propagated to -1439
PDLOG propagated to 1440
PDLOG propagated to -1441
PDLOG propagated to -1449
PDLOG propagated to -1444
PDLOG propagated to -1459
PDLOG propagated to -1454
PDLOG propagated to -1465
PDLOG propagated to -1471
PDLOG propagated to -1477
PDLOG propagated to -1483
PDLOG propagated to -1489
PDLOG propagated to -1495
PDLOG propagated to -1505
PDLOG propagated to -1506
PDLOG propagated to -1504
PDLOG propagated to -1503
PDLOG propagated to -1500
PDLOG propagated to 1501
PDLOG propagated to -1502
PDLOG propagated to -1508
PDLOG propagated to -1499
PDLOG propagated to 1509
PDLOG propagated to -1541
PDLOG propagated to -1555
PDLOG propagated to -1558
PDLOG propagated to -1552
PDLOG propagated to -1549
PDLOG propagated to -1546
PDLOG propagated to -1565
PDLOG propagated to -1919
PDLOG propagated to -1923
PDLOG propagated to -1950
PDLOG propagated to -1947
PDLOG propagated to -1939
PDLOG propagated to -1936
PDLOG propagated to -1942
PDLOG propagated to -1933
PDLOG propagated to -1994
PDLOG propagated to -2012
PDLOG propagated to -2028
PDLOG propagated to -2039
PDLOG propagated to -2049
PDLOG propagated to -2044
PDLOG propagated to -2056
PDLOG propagated to -2058
PDLOG propagated to -2054
PDLOG propagated to -2062
PDLOG propagated to -2060
PDLOG propagated to -2072
PDLOG propagated to -2070
PDLOG propagated to -2075
PDLOG propagated to -2086
PDLOG propagated to -2082
PDLOG propagated to -2090
PDLOG propagated to -2114
PDLOG propagated to -2111
PDLOG propagated to -2108
PDLOG propagated to -2105
PDLOG propagated to -2102
PDLOG propagated to -2099
PDLOG propagated to -2096
PDLOG propagated to -2341
PDLOG propagated to -2342
PDLOG propagated to -2343
PDLOG propagated to -2344
PDLOG propagated to -2345
PDLOG propagated to -2339
PDLOG propagated to -2160
PDLOG propagated to -2157
PDLOG propagated to -2154
PDLOG propagated to -2233
PDLOG propagated to -2229
PDLOG propagated to -2146
PDLOG propagated to -2290
PDLOG propagated to -2306
PDLOG propagated to -2302
PDLOG propagated to -2315
PDLOG propagated to -2311
PDLOG propagated to -2295
PDLOG propagated to -2280
PDLOG propagated to -2277
PDLOG propagated to -2177
PDLOG propagated to -2174
PDLOG propagated to -2192
PDLOG propagated to -2189
PDLOG propagated to -2244
PDLOG propagated to -2239
PDLOG propagated to -2261
PDLOG propagated to -2256
PDLOG propagated to -2166
PDLOG propagated to -2151
PDLOG propagated to -2219
PDLOG propagated to -2211
PDLOG propagated to -2208
PDLOG propagated to -2199
PDLOG propagated to -2196
PDLOG propagated to -2184
PDLOG propagated to -2181
PDLOG propagated to -2139
PDLOG propagated to -2136
PDLOG propagated to -2130
PDLOG propagated to -2127
PDLOG propagated to -2351
PDLOG propagated to -2357
PDLOG propagated to -2363
PDLOG propagated to -2369
PDLOG propagated to -2378
PDLOG propagated to -2384
PDLOG propagated to -2392
PDLOG propagated to -2387
PDLOG propagated to -2398
PDLOG propagated to -2404
PDLOG propagated to -2410
PDLOG propagated to -2416
PDLOG propagated to -2422
PDLOG propagated to -2428
PDLOG propagated to -2434
PDLOG propagated to -2440
PDLOG propagated to -2446
PDLOG propagated to -2452
PDLOG propagated to -2458
PDLOG propagated to -2463
PDLOG propagated to -2468
PDLOG propagated to -2476
PDLOG propagated to -2481
PDLOG propagated to -2486
PDLOG propagated to -2491
PDLOG propagated to -2496
PDLOG propagated to -2501
PDLOG propagated to -2515
PDLOG propagated to -2513
PDLOG propagated to -2514
PDLOG propagated to -2509
PDLOG propagated to 2510
PDLOG propagated to -2511
PDLOG propagated to -2512
PDLOG propagated to -2508
PDLOG propagated to 2507
PDLOG propagated to -2521
PDLOG propagated to -2529
PDLOG propagated to -2534
PDLOG propagated to -2540
PDLOG propagated to -2545
PDLOG propagated to -2550
PDLOG propagated to -2558
PDLOG propagated to -2563
PDLOG propagated to -2568
PDLOG propagated to -2576
PDLOG propagated to -2581
PDLOG propagated to -2586
PDLOG propagated to -2591
PDLOG propagated to -2596
PDLOG propagated to -2601
PDLOG propagated to -2606
PDLOG propagated to -2611
PDLOG propagated to -2621
PDLOG propagated to -2619
PDLOG propagated to -2624
PDLOG propagated to -2638
PDLOG propagated to -2635
PDLOG propagated to -2647
PDLOG propagated to -2653
PDLOG propagated to -2659
PDLOG propagated to -2664
PDLOG propagated to -2716
PDLOG propagated to -2721
PDLOG propagated to -2726
PDLOG propagated to -2731
PDLOG propagated to -2737
PDLOG propagated to -2742
PDLOG propagated to -2740
PDLOG propagated to 2741
PDLOG propagated to -2743
PDLOG propagated to 2745
PDLOG propagated to -2746
PDLOG propagated to -2747
PDLOG propagated to -2744
PDLOG propagated to 2748
PDLOG propagated to -2751
PDLOG propagated to -2749
PDLOG propagated to 2750
PDLOG propagated to -2752
PDLOG propagated to 2753
PDLOG propagated to -2754
PDLOG propagated to -2756
PDLOG propagated to -2764
PDLOG propagated to -2772
PDLOG propagated to -2780
PDLOG propagated to -2785
PDLOG propagated to -2790
PDLOG propagated to -2798
PDLOG propagated to -2806
PDLOG propagated to -2824
PDLOG propagated to -2821
PDLOG propagated to -2833
PDLOG propagated to -2841
PDLOG propagated to -2848
PDLOG propagated to -2853
PDLOG propagated to -2873
PDLOG propagated to -2876
PDLOG propagated to -2867
PDLOG propagated to -2865
PDLOG propagated to -2898
PDLOG propagated to -2901
PDLOG propagated to -2904
PDLOG propagated to -2909
PDLOG propagated to -2914
PDLOG propagated to -2917
PDLOG propagated to -2964
PDLOG propagated to -2962
PDLOG propagated to -2959
PDLOG propagated to -2967
PDLOG propagated to -2968
PDLOG propagated to 2966
PDLOG propagated to -2972
PDLOG propagated to -2974
PDLOG propagated to -2978
PDLOG propagated to -2982
PDLOG propagated to -2984
PDLOG propagated to -2988
PDLOG propagated to -2992
PDLOG propagated to -2996
PDLOG propagated to -3000
PDLOG propagated to -3004
PDLOG propagated to -3006
PDLOG propagated to -3010
PDLOG propagated to -3014
PDLOG propagated to -3025
PDLOG propagated to -3028
PDLOG propagated to -3031
PDLOG propagated to -3037
PDLOG propagated to -3041
PDLOG propagated to -3045
PDLOG propagated to -3047
PDLOG propagated to -3051
PDLOG propagated to -3055
PDLOG propagated to -3057
PDLOG propagated to -3061
PDLOG propagated to -3065
PDLOG propagated to -3069
PDLOG propagated to -3713
PDLOG propagated to -3717
PDLOG propagated to -2920
PDLOG propagated to -3726
PDLOG propagated to -3735
PDLOG propagated to -3742
PDLOG propagated to -3750
PDLOG propagated to -3758
PDLOG propagated to -3765
PDLOG propagated to -3770
PDLOG propagated to -3773
PDLOG propagated to -3781
PDLOG propagated to -3784
PDLOG propagated to -3776
PDLOG propagated to -3791
PDLOG propagated to -3794
PDLOG propagated to -3797
PDLOG propagated to -3804
PDLOG propagated to -3807
PDLOG propagated to -3809
PDLOG propagated to -3808
PDLOG propagated to 3806
PDLOG propagated to -3821
PDLOG propagated to -3826
PDLOG propagated to -3824
PDLOG propagated to -3823
PDLOG propagated to -3827
PDLOG propagated to -3825
PDLOG propagated to 3828
PDLOG propagated to -3832
PDLOG propagated to 3830
PDLOG propagated to -3829
PDLOG propagated to -3822
PDLOG propagated to 3819
PDLOG propagated to -3817
PDLOG propagated to -3815
PDLOG propagated to -3831
PDLOG propagated to -3833
PDLOG propagated to 3836
PDLOG propagated to -3835
PDLOG propagated to -3834
PDLOG propagated to 3820
PDLOG propagated to -3837
PDLOG propagated to -3840
PDLOG propagated to -3842
PDLOG propagated to -3850
PDLOG propagated to 3853
PDLOG propagated to -3852
PDLOG propagated to -3851
PDLOG propagated to 3848
PDLOG propagated to -3854
PDLOG propagated to 3855
PDLOG propagated to -3849
PDLOG propagated to 3846
PDLOG propagated to -3856
PDLOG propagated to 3858
PDLOG propagated to -3857
PDLOG propagated to 3847
PDLOG propagated to 3816
PDLOG propagated to 3813
PDLOG propagated to -3811
PDLOG propagated to -3859
PDLOG propagated to 3861
PDLOG propagated to -3860
PDLOG propagated to 3814
PDLOG propagated to -3862
PDLOG propagated to -3868
PDLOG propagated to -3866
PDLOG propagated to -3867
PDLOG propagated to 3865
PDLOG propagated to 3863
PDLOG propagated to 3869
PDLOG propagated to -3864
PDLOG propagated to 3812
PDLOG propagated to 3810
PDLOG propagated to -3874
PDLOG propagated to -3877
PDLOG propagated to 3880
PDLOG propagated to 3878
PDLOG propagated to 3876
PDLOG propagated to 3875
PDLOG propagated to 3873
PDLOG propagated to -3871
PDLOG propagated to -3872
PDLOG propagated to 3870
PDLOG propagated to -3882
PDLOG propagated to -3883
PDLOG propagated to 3881
PDLOG propagated to -3886
PDLOG propagated to -3887
PDLOG propagated to 3885
PDLOG propagated to -3889
PDLOG propagated to -3890
PDLOG propagated to 3888
PDLOG propagated to -3892
PDLOG propagated to -3893
PDLOG propagated to 3891
PDLOG propagated to -3895
PDLOG propagated to -3896
PDLOG propagated to 3894
PDLOG propagated to -3898
PDLOG propagated to -3899
PDLOG propagated to 3897
PDLOG propagated to -3901
PDLOG propagated to -3902
PDLOG propagated to 3900
PDLOG propagated to -3908
PDLOG propagated to -3910
PDLOG propagated to -3911
PDLOG propagated to 3909
PDLOG propagated to -3916
PDLOG propagated to 3915
PDLOG propagated to -3913
PDLOG propagated to -3914
PDLOG propagated to 3912
PDLOG propagated to -3928
PDLOG propagated to -3935
PDLOG propagated to 3934
PDLOG propagated to 3933
PDLOG propagated to -3931
PDLOG propagated to -3941
PDLOG propagated to 3940
PDLOG propagated to -3938
PDLOG propagated to -3948
PDLOG propagated to -3952
PDLOG propagated to -3960
PDLOG propagated to -3964
PDLOG propagated to -3971
PDLOG propagated to -3978
PDLOG propagated to -3985
PDLOG propagated to -3992
PDLOG propagated to -3999
PDLOG propagated to -4006
PDLOG propagated to -4014
PDLOG propagated to -4013
PDLOG propagated to -4015
PDLOG propagated to -4016
PDLOG propagated to -4017
PDLOG propagated to -4010
PDLOG propagated to -4053
PDLOG propagated to -4160
PDLOG propagated to -4256
PDLOG propagated to -4343
PDLOG propagated to -4409
PDLOG propagated to -4418
PDLOG propagated to -4426
PDLOG propagated to -4440
PDLOG propagated to -4448
PDLOG propagated to -4471
PDLOG propagated to -4474
PDLOG propagated to -4477
PDLOG propagated to -4480
PDLOG propagated to -4483
PDLOG propagated to -4510
PDLOG propagated to -4534
PDLOG propagated to -4547
PDLOG propagated to -4561
PDLOG propagated to -4569
PDLOG propagated to -4577
PDLOG propagated to -4581
PDLOG propagated to -4586
PDLOG propagated to -4584
PDLOG propagated to -4589
PDLOG propagated to -4596
PDLOG propagated to -4593
PDLOG propagated to -4599
PDLOG propagated to -4603
PDLOG propagated to -4611
PDLOG propagated to -4614
PDLOG propagated to -4620
PDLOG propagated to -4628
PDLOG propagated to -4647
PDLOG propagated to -4650
PDLOG propagated to -4653
PDLOG propagated to -4656
PDLOG propagated to -4659
PDLOG propagated to -4662
PDLOG propagated to -4665
PDLOG propagated to -4674
PDLOG propagated to -4673
PDLOG propagated to -4672
PDLOG propagated to -4670
PDLOG propagated to -4668
PDLOG propagated to -4678
PDLOG propagated to -4697
PDLOG propagated to -4700
PDLOG propagated to -4703
PDLOG propagated to -4706
PDLOG propagated to -4710
PDLOG propagated to -4716
PDLOG propagated to -4720
PDLOG propagated to -4728
PDLOG propagated to -4732
PDLOG propagated to -4738
PDLOG propagated to -4742
PDLOG propagated to -4758
PDLOG propagated to -4769
PDLOG propagated to -4772
PDLOG propagated to -4777
PDLOG propagated to -4780
PDLOG propagated to -4787
PDLOG propagated to -4790
PDLOG propagated to -4804
PDLOG propagated to -4810
PDLOG propagated to -4817
PDLOG propagated to -4823
PDLOG propagated to -4834
PDLOG propagated to -4839
PDLOG propagated to -4858
PDLOG propagated to -4869
PDLOG propagated to -4872
PDLOG propagated to -4879
PDLOG propagated to -4882
PDLOG propagated to -4887
PDLOG propagated to -4890
PDLOG propagated to -4911
PDLOG propagated to -4914
PDLOG propagated to -4921
PDLOG propagated to -4924
PDLOG propagated to -4927
PDLOG propagated to -4933
PDLOG propagated to -4939
PDLOG propagated to -4945
PDLOG propagated to -4951
PDLOG propagated to -4960
PDLOG propagated to 4969
PDLOG propagated to -4968
PDLOG propagated to -4970
PDLOG propagated to -4975
PDLOG propagated to -4982
PDLOG propagated to -4989
PDLOG propagated to -4996
PDLOG propagated to -5003
PDLOG propagated to -5010
PDLOG propagated to -5017
PDLOG propagated to -5024
PDLOG propagated to -5031
PDLOG propagated to -5038
PDLOG propagated to -5045
PDLOG propagated to -5052
PDLOG propagated to -5058
PDLOG propagated to -5064
PDLOG propagated to -5074
PDLOG propagated to -5080
PDLOG propagated to -5086
PDLOG propagated to -5092
PDLOG propagated to -5098
PDLOG propagated to -5104
PDLOG propagated to -5111
PDLOG propagated to -5113
PDLOG propagated to -5112
PDLOG propagated to -5116
PDLOG propagated to -5126
PDLOG propagated to -5136
PDLOG propagated to -5143
PDLOG propagated to -5150
PDLOG propagated to -5156
PDLOG propagated to -5163
PDLOG propagated to -5173
PDLOG propagated to -5179
PDLOG propagated to -5186
PDLOG propagated to -5196
PDLOG propagated to -5202
PDLOG propagated to -5209
PDLOG propagated to -5215
PDLOG propagated to -5222
PDLOG propagated to -5228
PDLOG propagated to -5235
PDLOG propagated to -5241
PDLOG propagated to -5247
PDLOG propagated to -5251
PDLOG propagated to -5257
PDLOG propagated to -5272
PDLOG propagated to -5275
PDLOG propagated to -5283
PDLOG propagated to -5290
PDLOG propagated to -5297
PDLOG propagated to -5303
PDLOG propagated to -5356
PDLOG propagated to -5362
PDLOG propagated to -5368
PDLOG propagated to -5374
PDLOG propagated to -5382
PDLOG propagated to -5384
PDLOG propagated to 5383
PDLOG propagated to -5381
PDLOG propagated to 5389
PDLOG propagated to -5388
PDLOG propagated to -5386
PDLOG propagated to -5387
PDLOG propagated to 5385
PDLOG propagated to -5391
PDLOG propagated to -5393
PDLOG propagated to 5392
PDLOG propagated to -5390
PDLOG propagated to 5395
PDLOG propagated to -5394
PDLOG propagated to -5400
PDLOG propagated to -5410
PDLOG propagated to -5420
PDLOG propagated to -5430
PDLOG propagated to -5436
PDLOG propagated to -5443
PDLOG propagated to -5453
PDLOG propagated to -5463
PDLOG propagated to -5483
PDLOG propagated to -5486
PDLOG propagated to -5494
PDLOG propagated to -5502
PDLOG propagated to -5510
PDLOG propagated to -5517
PDLOG propagated to -5535
PDLOG propagated to -5538
PDLOG propagated to -5529
PDLOG propagated to -5527
PDLOG propagated to -5560
PDLOG propagated to -5563
PDLOG propagated to -5566
PDLOG propagated to -5571
PDLOG propagated to -5576
PDLOG propagated to -5579
PDLOG propagated to -5626
PDLOG propagated to -5629
PDLOG propagated to -5630
PDLOG propagated to 5628
PDLOG propagated to -5634
PDLOG propagated to -5640
PDLOG propagated to -5644
PDLOG propagated to -5650
PDLOG propagated to -5654
PDLOG propagated to -5662
PDLOG propagated to -5666
PDLOG propagated to -5672
PDLOG propagated to -5676
PDLOG propagated to -5687
PDLOG propagated to -5690
PDLOG propagated to -5693
PDLOG propagated to -5703
PDLOG propagated to -5707
PDLOG propagated to -5713
PDLOG propagated to -5717
PDLOG propagated to -5723
PDLOG propagated to -5727
PDLOG propagated to -5731
PDLOG propagated to -6375
PDLOG propagated to -6379
PDLOG propagated to -6388
PDLOG propagated to -6397
PDLOG propagated to -6404
PDLOG propagated to -6412
PDLOG propagated to -6420
PDLOG propagated to -6427
PDLOG propagated to -6432
PDLOG propagated to -6435
PDLOG propagated to -6443
PDLOG propagated to -6446
PDLOG propagated to -6453
PDLOG propagated to -6456
PDLOG propagated to -6459
PDLOG propagated to -6466
PDLOG propagated to -6469
PDLOG propagated to -6471
PDLOG propagated to -6470
PDLOG propagated to 6468
PDLOG propagated to -6483
PDLOG propagated to -6488
PDLOG propagated to -6486
PDLOG propagated to -6485
PDLOG propagated to -6489
PDLOG propagated to -6487
PDLOG propagated to 6490
PDLOG propagated to -6493
PDLOG propagated to -6495
PDLOG propagated to 6498
PDLOG propagated to -6497
PDLOG propagated to -6496
PDLOG propagated to 6482
PDLOG propagated to -6479
PDLOG propagated to -6477
PDLOG propagated to -6499
PDLOG propagated to -6502
PDLOG propagated to -6504
PDLOG propagated to -6512
PDLOG propagated to 6515
PDLOG propagated to -6514
PDLOG propagated to -6513
PDLOG propagated to 6510
PDLOG propagated to -6516
PDLOG propagated to 6517
PDLOG propagated to -6511
PDLOG propagated to 6508
PDLOG propagated to -6518
PDLOG propagated to 6520
PDLOG propagated to -6519
PDLOG propagated to 6509
PDLOG propagated to 6478
PDLOG propagated to 6475
PDLOG propagated to -6473
PDLOG propagated to -6521
PDLOG propagated to 6523
PDLOG propagated to -6522
PDLOG propagated to 6476
PDLOG propagated to -6524
PDLOG propagated to -6530
PDLOG propagated to -6528
PDLOG propagated to -6529
PDLOG propagated to 6527
PDLOG propagated to 6525
PDLOG propagated to 6531
PDLOG propagated to -6526
PDLOG propagated to 6474
PDLOG propagated to 6472
PDLOG propagated to -6536
PDLOG propagated to -6539
PDLOG propagated to 6540
PDLOG propagated to 6538
PDLOG propagated to 6537
PDLOG propagated to 6535
PDLOG propagated to -6533
PDLOG propagated to -6534
PDLOG propagated to 6532
PDLOG propagated to -6544
PDLOG propagated to -6545
|  Number of variables:         29482                                         |
|  Number of clauses:             547                                         |
|  Parse time:                   0.00 s                                       |
|  Simplification time:          0.00 s                                       |
|                                                                             |
===============================================================================
Solved by simplification
restarts              : 0
conflicts             : 0              (0 /sec)
decisions             : 0              (-nan % random) (0 /sec)
propagations          : 839            (176520 /sec)
conflict literals     : 0              (-nan % deleted)
Memory used           : 9.91 MB
CPU time              : 0.004753 s

UNSATISFIABLE
